solution status: optimal solution found
objective value:                                   73
thingy.thingy.chamber[2].first.vinlet_y                   14 	(obj:0)
thingy.thingy.chamber[2].first.vinlet_z                   15 	(obj:0)
thingy.thingy.chamber[6].first.vinlet_y                   14 	(obj:0)
thingy.thingy.chamber[6].first.vinlet_z                   11 	(obj:0)
thingy.thingy.vinlet.valves[1].vinlet_y                   10 	(obj:0)
thingy.thingy.vinlet.valves[1].vinlet_z                   18 	(obj:0)
thingy.thingy.chamber[4].first.vinlet_y                   18 	(obj:0)
thingy.thingy.chamber[4].first.vinlet_z                   12 	(obj:0)
thingy.thingy.chamber[7].first.vinlet_y                   13 	(obj:0)
thingy.thingy.chamber[7].first.vinlet_z                   11 	(obj:0)
thingy.thingy.chamber[7].first.vbead_y                   17 	(obj:0)
thingy.thingy.chamber[7].first.vbead_z                   13 	(obj:0)
thingy.thingy.chamber[8].first.vinlet_y                   12 	(obj:0)
thingy.thingy.chamber[8].first.vinlet_z                   13 	(obj:0)
thingy.thingy.chamber[0].first.vinlet_y                   12 	(obj:0)
thingy.thingy.chamber[0].first.vinlet_z                   12 	(obj:0)
thingy.thingy.chamber[1].first.vinlet_y                   13 	(obj:0)
thingy.thingy.chamber[1].first.vinlet_z                   12 	(obj:0)
thingy.thingy.vinlet.valves[4].vinlet_y                   11 	(obj:0)
thingy.thingy.vinlet.valves[4].vinlet_z                   20 	(obj:0)
thingy.thingy.vinlet.valves[2].vinlet_y                   12 	(obj:0)
thingy.thingy.vinlet.valves[2].vinlet_z                   18 	(obj:0)
thingy.thingy.chamber[9].first.vbead_y                   15 	(obj:0)
thingy.thingy.chamber[9].first.vbead_z                   14 	(obj:0)
thingy.thingy.chamber[3].first.vbead_y                   17 	(obj:0)
thingy.thingy.chamber[3].first.vbead_z                   15 	(obj:0)
thingy.thingy.chamber[6].first.vbead_y                   17 	(obj:0)
thingy.thingy.chamber[6].first.vbead_z                   14 	(obj:0)
thingy.thingy.chamber[3].first.vinlet_y                   18 	(obj:0)
thingy.thingy.chamber[3].first.vinlet_z                   15 	(obj:0)
thingy.thingy.chamber[1].first.vbead_y                   16 	(obj:0)
thingy.thingy.chamber[1].first.vbead_z                   15 	(obj:0)
thingy.thingy.chamber[9].first.vinlet_y                   13 	(obj:0)
thingy.thingy.chamber[9].first.vinlet_z                   13 	(obj:0)
thingy.thingy.chamber[5].first.vinlet_y                   15 	(obj:0)
thingy.thingy.chamber[5].first.vinlet_z                   11 	(obj:0)
thingy.thingy.chamber[8].first.vbead_y                   16 	(obj:0)
thingy.thingy.chamber[8].first.vbead_z                   13 	(obj:0)
thingy.thingy.chamber[4].first.vbead_y                   18 	(obj:0)
thingy.thingy.chamber[4].first.vbead_z                   13 	(obj:0)
thingy.thingy.chamber[0].first.vbead_y                   15 	(obj:0)
thingy.thingy.chamber[0].first.vbead_z                   15 	(obj:0)
thingy.thingy.vinlet.valves[0].vinlet_y                   12 	(obj:0)
thingy.thingy.vinlet.valves[0].vinlet_z                   20 	(obj:0)
thingy.thingy.chamber[5].first.vbead_y                   15 	(obj:0)
thingy.thingy.chamber[5].first.vbead_z                   13 	(obj:0)
thingy.thingy.vinlet.valves[3].vinlet_y                   10 	(obj:0)
thingy.thingy.vinlet.valves[3].vinlet_z                   20 	(obj:0)
thingy.thingy.chamber[2].first.vbead_y                   16 	(obj:0)
thingy.thingy.chamber[2].first.vbead_z                   14 	(obj:0)
x52                                                 2 	(obj:1)
x55                                                 2 	(obj:1)
x59                                                 1 	(obj:1)
x61                                                 1 	(obj:1)
x62                                                 2 	(obj:1)
x67                                                 2 	(obj:1)
x68                                                 2 	(obj:1)
x71                                                 2 	(obj:1)
x77                                                 1 	(obj:1)
x80                                                 2 	(obj:1)
x82                                                 1 	(obj:1)
x85                                                 2 	(obj:1)
x91                                                 1 	(obj:1)
x92                                                 2 	(obj:1)
x97                                                 2 	(obj:1)
x98                                                 1 	(obj:1)
x103                                                2 	(obj:1)
x104                                                2 	(obj:1)
x106                                                2 	(obj:1)
x109                                                1 	(obj:1)
x116                                                2 	(obj:1)
x117                                                2 	(obj:1)
x118                                                1 	(obj:1)
x122                                                1 	(obj:1)
x123                                                1 	(obj:1)
x124                                                1 	(obj:1)
x135                                                2 	(obj:1)
x138                                                2 	(obj:1)
x144                                                1 	(obj:1)
x151                                                2 	(obj:1)
x152                                                2 	(obj:1)
x157                                                2 	(obj:1)
x158                                                2 	(obj:1)
x161                                                1 	(obj:1)
x163                                                1 	(obj:1)
x164                                                2 	(obj:1)
x167                                                3 	(obj:1)
x172                                                2 	(obj:1)
x173                                                1 	(obj:1)
x177                                                2 	(obj:1)
x180                                                1 	(obj:1)
x187                                                2 	(obj:1)
x190                                                1 	(obj:1)
x192                                                1 	(obj:1)
x193                                                2 	(obj:1)
